This is Ipopt version 3.14.4, running with linear solver MUMPS 5.4.1.

Number of nonzeros in equality constraint Jacobian...:    19061
Number of nonzeros in inequality constraint Jacobian.:     9464
Number of nonzeros in Lagrangian Hessian.............:        0

Total number of variables............................:     6568
                     variables with only lower bounds:     1517
                variables with lower and upper bounds:        0
                     variables with only upper bounds:        0
Total number of equality constraints.................:     5217
Total number of inequality constraints...............:     1796
        inequality constraints with only lower bounds:        0
   inequality constraints with lower and upper bounds:        0
        inequality constraints with only upper bounds:     1796

iter    objective    inf_pr   inf_du lg(mu)  ||d||  lg(rg) alpha_du alpha_pr  ls
   0  4.5910010e+02 6.84e+00 2.95e+00   0.0 0.00e+00    -  0.00e+00 0.00e+00   0
   1  5.5712304e+02 6.36e+00 1.10e+01  -0.9 4.43e+00    -  2.08e-02 6.93e-02f  1
   2  1.0269267e+03 6.09e+00 7.61e+01   0.0 4.49e+00    -  2.87e-01 4.23e-02f  1
   3  1.0289272e+03 6.09e+00 3.67e+04   0.1 3.57e+00    -  1.55e-01 4.42e-04h  1
   4r 1.0289272e+03 6.09e+00 1.00e+03   0.1 0.00e+00    -  0.00e+00 2.76e-07R  5
   5r 3.1545163e+03 7.08e+00 9.97e+02   2.1 6.41e+02    -  2.43e-03 1.71e-03f  1
   6r 6.5717105e+03 7.42e+00 9.92e+02   1.7 1.24e+02    -  1.12e-02 5.72e-03f  1
   7r 7.2188545e+03 4.77e+00 9.84e+02  -4.0 1.57e+02    -  6.56e-03 7.68e-03f  1
   8  7.2329546e+03 4.75e+00 2.16e+04   0.4 2.51e+00    -  2.95e-01 5.92e-03f  1
   9  7.2329896e+03 4.75e+00 4.75e+07   0.9 8.93e+00    -  1.29e-01 5.96e-05h  1
iter    objective    inf_pr   inf_du lg(mu)  ||d||  lg(rg) alpha_du alpha_pr  ls
  10r 7.2329896e+03 4.75e+00 1.00e+03   0.1 0.00e+00    -  0.00e+00 2.98e-07R  2
  11r 7.8032999e+03 3.09e+00 9.96e+02   1.4 2.11e+02    -  6.52e-03 3.40e-03f  1
  12  7.7732633e+03 3.09e+00 6.47e+02  -0.3 9.25e+00    -  9.71e-02 1.14e-03f  1
  13  7.7732805e+03 3.09e+00 4.79e+07   0.5 6.81e+00    -  7.95e-01 1.14e-05h  1
  14  7.7732790e+03 3.09e+00 9.14e+13  -4.0 3.38e+00    -  2.20e-01 1.14e-07h  1
  15  7.4446621e+03 2.97e+00 6.85e+13   0.1 3.77e+00    -  2.51e-01 3.87e-02f  1
  16r 7.4446621e+03 2.97e+00 1.00e+03   0.6 0.00e+00    -  0.00e+00 3.81e-07R  5
  17r 9.7335261e+03 5.18e-01 9.85e+02   1.5 6.52e+01    -  2.72e-02 1.23e-02f  1
  18  9.5634743e+03 5.16e-01 8.28e+02   0.1 6.49e+00    -  1.56e-01 5.24e-03f  1
  19  9.5623828e+03 5.16e-01 2.26e+06  -0.5 4.38e+00    -  2.53e-01 5.27e-05h  1
iter    objective    inf_pr   inf_du lg(mu)  ||d||  lg(rg) alpha_du alpha_pr  ls
  20r 9.5623828e+03 5.16e-01 1.00e+03  -0.0 0.00e+00    -  0.00e+00 2.63e-07R  2
  21r 9.6054303e+03 4.37e-01 9.98e+02  -4.0 1.98e+01    -  5.24e-02 1.62e-03f  1
  22r 9.6054303e+03 4.37e-01 9.55e+02   0.7 0.00e+00    -  0.00e+00 2.64e-07R  2
  23r 9.6272329e+03 4.19e-01 9.90e+02  -1.0 2.64e+00    -  4.00e-01 2.44e-03f  1
  24r 1.2669066e+04 1.03e-01 6.05e+02  -1.1 2.37e+00    -  3.88e-01 3.89e-01f  1
  25r 1.9408485e+04 8.24e-02 3.78e+02  -0.7 1.75e+00    -  5.61e-01 3.75e-01f  1
  26  1.9400411e+04 8.23e-02 4.85e+04   0.9 1.33e+01    -  9.09e-01 1.78e-03f  1
  27  1.9400099e+04 8.23e-02 1.05e+09   0.6 2.77e+00    -  3.99e-01 1.78e-05h  1
  28r 1.9400099e+04 8.23e-02 1.00e+03   0.9 0.00e+00    -  0.00e+00 8.90e-08R  2
  29r 1.9872259e+04 8.17e-02 8.97e+02  -0.1 9.18e-01    -  8.51e-01 9.34e-02f  1
iter    objective    inf_pr   inf_du lg(mu)  ||d||  lg(rg) alpha_du alpha_pr  ls
  30r 3.7477309e+04 8.17e-02 1.45e+02  -0.2 9.64e-01    -  5.45e-01 8.38e-01f  1
  31r 3.3892447e+04 8.17e-02 7.48e+01  -0.9 3.23e-01    -  1.00e+00 7.16e-01f  1
  32r 5.2508509e+04 8.17e-02 1.43e+00  -0.7 1.45e+00    -  1.00e+00 9.94e-01f  1
  33r 3.8555589e+04 8.17e-02 3.86e+01  -1.5 1.14e+00    -  1.00e+00 8.54e-01f  1
  34r 3.2654735e+04 8.17e-02 2.08e-01  -1.9 3.91e-01    -  1.00e+00 1.00e+00f  1
  35r 2.7821624e+04 8.17e-02 7.04e+00  -3.0 4.45e-01    -  9.21e-01 7.16e-01f  1
  36r 2.7012340e+04 8.17e-02 8.27e+00  -3.6 2.08e-01    -  1.00e+00 4.77e-01f  1
  37r 2.2313279e+04 8.17e-02 1.06e+00  -3.7 3.40e-01    -  1.00e+00 1.00e+00f  1
  38r 2.2357537e+04 8.17e-02 2.75e-01  -4.0 2.54e-01    -  1.00e+00 1.00e+00h  1
  39r 2.0390647e+04 8.17e-02 7.21e-02  -4.0 2.75e-01    -  1.00e+00 1.00e+00h  1
iter    objective    inf_pr   inf_du lg(mu)  ||d||  lg(rg) alpha_du alpha_pr  ls
  40r 2.0174529e+04 8.17e-02 1.10e-02  -4.0 2.35e-01    -  1.00e+00 1.00e+00h  1
  41r 1.9951620e+04 8.17e-02 6.17e-02  -4.0 1.45e-01    -  1.00e+00 1.00e+00h  1
  42r 1.9689398e+04 8.17e-02 1.30e-02  -4.0 1.26e-01    -  1.00e+00 1.00e+00h  1
  43r 1.9772989e+04 8.17e-02 2.76e-02  -4.0 6.06e-02    -  1.00e+00 1.00e+00h  1
  44r 1.9704921e+04 8.17e-02 5.29e-03  -4.0 3.11e-02    -  1.00e+00 1.00e+00h  1
  45r 1.9696018e+04 8.17e-02 1.19e-03  -4.0 2.71e-02    -  1.00e+00 1.00e+00h  1
  46r 1.9711760e+04 8.17e-02 2.55e-03  -4.0 9.82e-03    -  1.00e+00 1.00e+00h  1
  47r 1.9702388e+04 8.17e-02 2.86e-03  -4.0 7.51e-03    -  1.00e+00 1.00e+00h  1
  48r 1.9707087e+04 8.17e-02 8.33e-05  -4.0 3.50e-03    -  1.00e+00 1.00e+00h  1
  49r 1.9707475e+04 8.17e-02 5.24e-04  -4.0 2.36e-03    -  1.00e+00 1.00e+00h  1
iter    objective    inf_pr   inf_du lg(mu)  ||d||  lg(rg) alpha_du alpha_pr  ls
  50r 1.9706818e+04 8.17e-02 1.65e-04  -4.0 7.86e-04    -  1.00e+00 1.00e+00h  1

Number of Iterations....: 50

                                   (scaled)                 (unscaled)
Objective...............:   7.4859013408414257e+03    1.9707396981976693e+04
Dual infeasibility......:   1.1473688204623900e+02    3.0205651664456860e+02
Constraint violation....:   8.1675753045868799e-02    8.1675753045868799e-02
Variable bound violation:   0.0000000000000000e+00    0.0000000000000000e+00
Complementarity.........:   1.0000000000000002e-04    2.6326017515696459e-04
Overall NLP error.......:   1.1473688204623900e+02    3.0205651664456860e+02


Number of objective function evaluations             = 70
Number of objective gradient evaluations             = 26
Number of equality constraint evaluations            = 70
Number of inequality constraint evaluations          = 70
Number of equality constraint Jacobian evaluations   = 58
Number of inequality constraint Jacobian evaluations = 58
Number of Lagrangian Hessian evaluations             = 0
Total seconds in IPOPT                               = 37.186

EXIT: Converged to a point of local infeasibility. Problem may be infeasible.
